# opt=maxcyc=500 freq hf/cc-pvdz geom=connectivity

Title

0 1
 C                  0.00000000    0.00000000    0.13658200
 O                  0.00000000    0.00000000    1.29016400
 F                  0.00000000    1.04495400   -0.61893400
 F                  0.00000000   -1.04495400   -0.61893400

 1 2 3.0 3 1.0 4 1.0
 2
 3
 4

