 $CONTRL COORD=CART UNITS=ANGS $END

 $DATA
hexane.xyz
C1
C      6.0     -2.6588500000   -1.3112100000   -0.0017200000 
C      6.0     -1.4666100000   -0.3768700000   -0.1811800000 
H      1.0     -2.7149100000   -1.6683700000    1.0485600000 
H      1.0     -2.5721400000   -2.1847700000   -0.6821200000 
H      1.0     -3.5957200000   -0.7652600000   -0.2415900000 
C      6.0     -0.1440800000   -1.0854500000    0.1359800000 
H      1.0     -1.5932800000    0.4967400000    0.4949800000 
H      1.0     -1.4513000000   -0.0144000000   -1.2324900000 
C      6.0      1.0371100000   -0.1248900000   -0.0436600000 
H      1.0     -0.0201500000   -1.9565300000   -0.5452400000 
H      1.0     -0.1636600000   -1.4527000000    1.1863500000 
C      6.0      2.3721600000   -0.8128900000    0.2602300000 
H      1.0      0.9087400000    0.7419100000    0.6416200000 
H      1.0      1.0501000000    0.2468100000   -1.0921300000 
C      6.0      3.5362800000    0.1583700000    0.0843400000 
H      1.0      2.5144000000   -1.6746500000   -0.4278700000 
H      1.0      2.3720600000   -1.1880500000    1.3069700000 
H      1.0      3.5696000000    0.5359000000   -0.9601700000 
H      1.0      4.4929100000   -0.3592700000    0.3062500000 
H      1.0      3.4281800000    1.0190300000    0.7787100000 
C      6.0      1.7039700000    2.4001300000    0.0417900000 
H      1.0      2.7739700000    2.4001300000    0.0417900000 
H      1.0      1.3473000000    3.3709000000    0.3162000000 
H      1.0      1.3473000000    1.6771000000    0.7453000000 
H      1.0      1.3473000000    2.1523900000   -0.9361200000 
 $END


