# opt=(modredundant,maxcyc=50) rhf/6-31g geom=connectivity

new.log

0 1
 O                  0.00000000    0.00000000    0.00000000
 H                  0.00000000    0.00000000    0.95010000
 H                  0.91616800    0.00000000   -0.23489111
 O                 -0.00003290    0.00000000    2.98572350
 H                  0.85432299   -0.18503175    3.35123072
 H                 -0.57258219   -0.65886801    3.35299623

 1 2 1.0 3 1.0
 2
 3
 4 5 1.0 6 1.0
 5
 6

B 4 1

