# opt=maxcyc=500 freq hf/cc-pvtz geom=connectivity

Title

0 1
 C                  0.00000000    0.00000000    0.13429700
 O                  0.00000000    0.00000000    1.28554400
 F                  0.00000000    1.04037900   -0.61611900
 F                  0.00000000   -1.04037900   -0.61611900

 1 2 3.0 3 1.0 4 1.0
 2
 3
 4

