#n hf/cc-pvtz Opt=(maxcyc=2000)

 Title

0 1
C  
C   1 B1
H   2 B2 1 A2
H   2 B3 1 A3 3 D3
H   2 B4 1 A4 3 D4
O   1 B5 2 A5 3 D5
H   1 B6 2 A6 3 D6
Variables:
B1        1.49758
B2        1.09245
A2      109.10018
B3        1.09278
A3      110.06729
D3      239.93122
B4        1.09243
A4      109.10623
D4      119.80674
B5        1.22650
A5      123.44839
D5      120.83117
B6        1.10307
A6      115.59625
D6      300.66609


