# opt=maxcyc=2000 freq hf/cc-pvtz geom=connectivity

Title

0 1
 C                 -0.24142600    0.39242200   -0.00009200
 C                  1.16055400   -0.14273200   -0.00009500
 H                  1.69007500    0.23066100   -0.87060800
 H                  1.15494000   -1.22245400   -0.00490700
 H                  1.68599200    0.22235300    0.87647800
 O                 -1.21519300   -0.27683700    0.00001300
 H                 -0.32422500    1.48599800    0.00006300

 1 2 1.0 6 2.0 7 1.0
 2 3 1.0 4 1.0 5 1.0
 3
 4
 5
 6
 7

