%NProcShared=2
#n RHF/6-31G(d) Opt=(MaxCyc=500)

 Title

0 1
C  
C   1 B1
H   1 B2 2 A2
H   1 B3 2 A3 3 D3
H   1 B4 2 A4 3 D4
C   2 B5 1 A5 3 D5
H   2 B6 1 A6 3 D6
C   6 B7 2 A7 1 D7
H   6 B8 2 A8 1 D8
C   8 B9 6 A9 2 D9
H   8 B10 6 A10 2 D10
C   10 B11 8 A11 6 D11
H   10 B12 8 A12 6 D12
C   12 B13 10 A13 8 D13
H   12 B14 10 A14 8 D14
H   14 B15 12 A15 10 D15
H   14 B16 12 A16 10 D16
Variables:
B1        1.49438
B2        1.09405
A2      110.23523
B3        1.09440
A3      109.96915
D3      240.70417
B4        1.09491
A4      111.72558
D4      121.28268
B5        1.34108
A5      122.84905
D5      268.55531
B6        1.08723
A6      116.56907
D6       88.37936
B7        1.44471
A7      123.39803
D7      180.19410
B8        1.08842
A8      119.34043
D8        0.93586
B9        1.34206
A9      122.19029
D9      184.63922
B10        1.08768
A10      117.47895
D10        4.60547
B11        1.44317
A11      123.32587
D11      180.28325
B12        1.08809
A12      119.78446
D12        0.55918
B13        1.33886
A13      122.63694
D13      181.59878
B14        1.08772
A14      118.15286
D14        1.70944
B15        1.08544
A15      122.11674
D15        0.27309
B16        1.08516
A16      120.59534
D16      180.12543


