#n AM1 Opt

#hf/6-31g opt=(maxcyc=500)

0 1
C  
C   1 B1
H   1 B2 2 A2
H   1 B3 2 A3 3 D3
H   1 B4 2 A4 3 D4
C   2 B5 1 A5 3 D5
H   2 B6 1 A6 3 D6
C   6 B7 2 A7 1 D7
H   6 B8 2 A8 1 D8
C   8 B9 6 A9 2 D9
H   8 B10 6 A10 2 D10
C   10 B11 8 A11 6 D11
H   10 B12 8 A12 6 D12
C   12 B13 10 A13 8 D13
H   12 B14 10 A14 8 D14
C   14 B15 12 A15 10 D15
H   14 B16 12 A16 10 D16
C   16 B17 14 A17 12 D17
H   16 B18 14 A18 12 D18
H   18 B19 16 A19 14 D19
H   18 B20 16 A20 14 D20
Variables:
B1        1.49571
B2        1.09406
A2      110.06847
B3        1.09398
A3      110.03647
D3      240.48891
B4        1.09533
A4      112.04994
D4      120.64848
B5        1.33963
A5      122.70128
D5      252.92280
B6        1.08715
A6      116.59966
D6       72.43681
B7        1.44604
A7      124.21613
D7      179.75374
B8        1.08910
A8      118.98861
D8        0.46918
B9        1.34033
A9      120.99752
D9      185.41858
B10        1.08748
A10      118.06337
D10        5.10408
B11        1.44589
A11      124.90103
D11      180.05240
B12        1.08910
A12      119.06031
D12        0.45396
B13        1.34129
A13      121.05416
D13      183.11541
B14        1.08753
A14      118.04278
D14        3.18076
B15        1.44253
A15      124.27746
D15      180.38434
B16        1.08904
A16      119.45675
D16        0.49577
B17        1.33844
A17      122.17466
D17      181.20333
B18        1.08750
A18      118.35436
D18        1.35940
B19        1.08624
A19      122.04976
D19        0.26019
B20        1.08511
A20      120.80616
D20      180.15922
