#n HF/6-31g Opt=(MaxCyc=500)

 Title

0 1
C  
O   1 B1
Cl  1 B2 2 A2
H   1 B3 2 A3 3 D3
Variables:
B1        1.22696
B2        1.73068
A2      127.34728
B3        1.10229
A3      119.93975
D3      180.00000
