#n HF/cc-pvdz Opt=(MaxCyc=500)

 Title

0 1
C  
O   1 B1
F   1 B2 2 A2
F   1 B3 2 A3 3 D3
Variables:
B1        1.21995
B2        1.33563
A2      119.84873
B3        1.33563
A3      119.84873
D3      180.00000

