#n HF/cc-pvtz Opt=(MaxCyc=500)

 Title

0 1
C  
O   1 B1
H   1 B2 2 A2
H   1 B3 2 A3 3 D3
Variables:
B1        1.22463
B2        1.10170
A2      122.23574
B3        1.10170
A3      122.23574
D3      180.00000
