# opt=maxcyc=500 freq hf/cc-pvtz geom=connectivity

Title

0 1
 C                  0.00000000    0.00000000   -0.51649700
 O                  0.00000000    0.00000000    0.66142300
 H                  0.00000000    0.92651100   -1.09620300
 H                  0.00000000   -0.92651100   -1.09620300

 1 2 2.0 3 1.0 4 1.0
 2
 3
 4

