# opt=maxcyc=500 freq hf/cc-pvdz geom=connectivity

Title

0 1
 C                  0.00000000    0.00000000   -0.51766200
 O                  0.00000000    0.00000000    0.66438500
 H                  0.00000000    0.93245100   -1.10455300
 H                  0.00000000   -0.93245100   -1.10455300

 1 2 2.0 3 1.0 4 1.0
 2
 3
 4

