#n HF/cc-pvdz Opt=(MaxCyc=2000)

 Title

0 1
C  
C   1 B1
H   1 B2 2 A2
H   1 B3 2 A3 3 D3
H   1 B4 2 A4 3 D4
C   2 B5 1 A5 3 D5
H   2 B6 1 A6 3 D6
H   2 B7 1 A7 3 D7
C   6 B8 2 A8 1 D8
H   6 B9 2 A9 1 D9
H   6 B10 2 A10 1 D10
H   9 B11 6 A11 2 D11
H   9 B12 6 A12 2 D12
H   9 B13 6 A13 2 D13
Variables:
B1        1.52092
B2        1.09456
A2      111.04002
B3        1.09479
A3      110.05449
D3      240.45205
B4        1.09390
A4      111.51219
D4      121.09802
B5        1.52895
A5      113.44772
D5      304.51024
B6        1.09622
A6      109.41585
D6      181.38665
B7        1.09654
A7      108.53713
D7       65.18872
B8        1.52095
A8      113.44739
D8      294.48168
B9        1.09653
A9      108.50212
D9      173.78500
B10        1.09622
A10      109.91094
D10       57.33122
B11        1.09456
A11      111.03978
D11      304.51834
B12        1.09477
A12      110.05516
D12      184.96840
B13        1.09391
A13      111.51079
d13       65.61453
