#n HF/cc-pvdz Opt=(MaxCyc=2000)

 Title

0 1
C  
C   1 B1
H   1 B2 2 A2
H   1 B3 2 A3 3 D3
H   1 B4 2 A4 3 D4
C   2 B5 1 A5 3 D5
H   2 B6 1 A6 3 D6
H   2 B7 1 A7 3 D7
C   6 B8 2 A8 1 D8
H   6 B9 2 A9 1 D9
H   6 B10 2 A10 1 D10
H   9 B11 6 A11 2 D11
H   9 B12 6 A12 2 D12
H   9 B13 6 A13 2 D13
Variables:
B1        1.52094
B2        1.09396
A2      111.49137
B3        1.09477
A3      110.05524
D3      240.67292
B4        1.09454
A4      111.05433
D4      121.10025
B5        1.52898
A5      113.46907
D5      294.08937
B6        1.09649
A6      108.55753
D6      173.38852
B7        1.09620
A7      109.39491
D7       57.19133
B8        1.52092
A8      113.47443
D8       64.84197
B9        1.09623
A9      109.89475
D9      302.00843
B10        1.09655
A10      108.48903
D10      185.58285
B11        1.09395
A11      111.48864
D11      294.08534
B12        1.09477
A12      110.05723
D12      174.76006
B13        1.09452
A13      111.05511
D13       55.18459
