#n hf/cc-pvdz Opt=(maxcyc=500)

 Title

0 1
C  
O   1 B1
H   1 B2 2 A2
H   1 B3 2 A3 3 D3
H   1 B4 2 A4 3 D4
O   2 B5 1 A5 3 D5
C   6 B6 2 A6 1 D6
H   7 B7 6 A7 2 D7
H   7 B8 6 A8 2 D8
H   7 B9 6 A9 2 D9
Variables:
B1        1.42057
B2        1.09305
A2      108.55232
B3        1.09359
A3      109.94522
D3      240.82442
B4        1.09397
A4      110.26315
D4      119.16456
B5        1.45785
A5      105.20560
D5      185.00536
B6        1.42056
A6      105.20494
D6      184.37374
B7        1.09397
A7      110.25768
D7      303.92808
B8        1.09305
A8      108.55317
D8      184.76270
B9        1.09359
A9      109.94768
D9       65.58731


