# opt=(modredundant,maxcyc=500) hf/cc-pvdz geom=connectivity

Title

0 1
 C                  1.72296500    0.09969100    0.00011800
 O                  0.47004400   -0.51523400   -0.00015800
 H                  2.44803900   -0.71220900    0.00009500
 H                  1.85457500    0.71436800    0.89216700
 H                  1.85483300    0.71464300   -0.89170300
 O                 -0.47004400    0.51523400   -0.00015800
 C                 -1.72296500   -0.09969100    0.00011800
 H                 -1.85483200   -0.71464500   -0.89170200
 H                 -2.44803900    0.71220900    0.00009300
 H                 -1.85457600   -0.71436600    0.89216800

 1 2 1.0 3 1.0 4 1.0 5 1.0
 2 6 1.0
 3
 4
 5
 6 7 1.0
 7 8 1.0 9 1.0 10 1.0
 8
 9
 10

D 1 2 6 7 S 72 5.000000

