#P hf/cc-pvdz Opt=z-matrix nosymm

 Title

0 1
O  
O   1 1.45331
H   1 0.97616 2 96.57214
H   2 0.97616 1 96.57214 3 180.00000

D 3 1 2 4 S 18 + 5.000000

