#n hf/cc-pvdz Opt=(maxcyc=500) nosymm

 Title

0 1
O  
O   1 B1
H   1 B2 2 A2
H   2 B3 1 A3 3 D3
Variables:
B1        1.45331
B2        0.97616
A2       96.57214
B3        0.97616
A3       96.57214
D3      180.00000


